

%Stossecke links - A.410.880.42.72 Fakten

component("A4108804072"). % Stossecke
component("A0038208256"). %Nebelscheinwerfer
component("A0005405654"). %Scheinwerfer
component("A0028202621"). %Blinker


component("A4108800414"). %  Halter
component("A4108851114"). %  Halter
component("A4108858714"). %  Halter
component("A6298854114"). %  Halter
component("A4108858814"). %  Halter

component("A4108800147"). %  Verkleidung Blinker
component("A4108850098"). % Dichtung

component("A0019877046"). % Dichtschnur
component("A0099873251"). % Dichtprofil
component("A0099878551"). % Dichtprofil


%VERSCHRAUBEN HALTER
screw_connection("A4108804072_A4108800414").
has_connected_component("A4108804072_A4108800414","A4108804072",0).
has_screw_hole("A4108804072","-2.3320000171661377 , -1.2319999933242798 , 0.7149999737739563").
has_connected_component("A4108804072_A4108800414","A4108800414",1).
has_screw_hole("A4108800414","-2.3320000171661377 , -1.2319999933242798 , 0.7149999737739563").

has_connection_point("A4108804072_A4108800414","-2.3320000171661377 , -1.2319999933242798 , 0.7149999737739563",0).
has_screw("-2.3320000171661377 , -1.2319999933242798 , 0.7149999737739563","N910105006002").


screw_connection("A4108804072_A4108851114").
has_connected_component("A4108804072_A4108851114","A4108804072",0).
has_screw_hole("A4108804072","-2.5139999389648438 , -0.9259999990463257 , 0.5550000071525574").
has_connected_component("A4108804072_A4108851114","A4108851114",1).
has_screw_hole("A4108851114","-2.5139999389648438 , -0.9259999990463257 , 0.5550000071525574").

has_connection_point("A4108804072_A4108851114","-2.5139999389648438 , -0.9259999990463257 , 0.5550000071525574",0).
has_screw("-2.5139999389648438 , -0.9259999990463257 , 0.5550000071525574","N910105006002").


screw_connection("A4108804072_A6298854114").
has_connected_component("A4108804072_A6298854114","A4108804072",0).
has_screw_hole("A4108804072","-2.3399999141693115 , -1.2100000381469727 , 0.22499999403953552").
has_connected_component("A4108804072_A6298854114","A6298854114",1).
has_screw_hole("A6298854114","-2.3399999141693115 , -1.2100000381469727 , 0.22499999403953552").

has_connection_point("A4108804072_A6298854114","-2.3399999141693115 , -1.2100000381469727 , 0.22499999403953552",0).
has_screw("-2.3399999141693115 , -1.2100000381469727 , 0.22499999403953552","N910105008026").
has_washer("-2.3399999141693115 , -1.2100000381469727 , 0.22499999403953552","N000000003250").
has_pluginnut("-2.3399999141693115 , -1.2100000381469727 , 0.22499999403953552","A0039941545","A6298854114").


%VERSCHRAUBEN HALTER FÜR NEBELSCHEINWERFER
screw_connection("A4108804072_A4108858714").
has_connected_component("A4108804072_A4108858714","A4108804072",0).
has_screw_hole("A4108804072","-2.4200000762939453 , -1.1770000457763672 , 0.02800000086426735").
has_connected_component("A4108804072_A4108858714","A4108858714",1).
has_screw_hole("A4108858714","-2.4200000762939453 , -1.1770000457763672 , 0.02800000086426735").

has_connection_point("A4108804072_A4108858714","-2.4200000762939453 , -1.1770000457763672 , 0.02800000086426735",0).
has_screw("-2.4200000762939453 , -1.1770000457763672 , 0.02800000086426735","N910105006002").


screw_connection("A4108804072_A4108858814").
has_connected_component("A4108804072_A4108858814","A4108804072",0).
has_screw_hole("A4108804072","-2.5399999618530273 , 0.9679999947547913 , 0.10999999940395355").
has_screw_hole("A4108804072","-2.5399999618530273 , 0.9819999933242798 , 0.02500000037252903").
has_connected_component("A4108804072_A4108858814","A4108858814",1).
has_screw_hole("A4108858814","-2.5399999618530273 , 0.9679999947547913 , 0.10999999940395355").
has_screw_hole("A4108858814","-2.5399999618530273 , 0.9819999933242798 , 0.02500000037252903").

has_connection_point("A4108804072_A4108858814","-2.5399999618530273 , 0.9679999947547913 , 0.10999999940395355",0).
has_screw("-2.5399999618530273 , 0.9679999947547913 , 0.10999999940395355","N910105006002").

has_connection_point("A4108804072_A4108858814","-2.5399999618530273 , 0.9819999933242798 , 0.02500000037252903",1).
has_screw("-2.5399999618530273 , 0.9819999933242798 , 0.02500000037252903","N910105006002").		



%VERSCHRAUBEN NEBELSCHEINWERFER AN HALTER
screw_connection("A0038208256_A4108858814").
has_connected_component("A0038208256_A4108858814","A0038208256",0).
has_screw_hole("A0038208256","-2.4210000038146973 , -1.003000020980835 , 0.11500000208616257").
has_screw_hole("A0038208256","-2.4210000038146973 , -1.0169999599456787 , 0.03099999949336052").
has_connected_component("A0038208256_A4108858814","A4108858814",1).
has_screw_hole("A4108858814","-2.4210000038146973 , -1.003000020980835 , 0.11500000208616257").
has_screw_hole("A4108858814","-2.4210000038146973 , -1.0169999599456787 , 0.03099999949336052").

has_connection_point("A0038208256_A4108858814","-2.4210000038146973 , -1.003000020980835 , 0.11500000208616257",0).
has_screw("-2.4210000038146973 , -1.003000020980835 , 0.11500000208616257","N910105006004").
has_nut("-2.4210000038146973 , -1.003000020980835 , 0.11500000208616257","N910112006001").

has_connection_point("A0038208256_A4108858814","-2.4210000038146973 , -1.0169999599456787 , 0.03099999949336052",1).
has_screw("-2.4210000038146973 , -1.0169999599456787 , 0.03099999949336052","N910105006004").		
has_nut("-2.4210000038146973 , -1.0169999599456787 , 0.03099999949336052","N910112006001").	

screw_connection("A0038208256_A4108858714").
has_connected_component("A0038208256_A4108858714","A0038208256",0).
has_screw_hole("A0038208256","-2.4200000762939453 , -1.1419999599456787 , 0.02800000086426735").
has_connected_component("A0038208256_A4108858714","A4108858714",1).
has_screw_hole("A4108858714","-2.4200000762939453 , -1.1419999599456787 , 0.02800000086426735").

has_connection_point("A0038208256_A4108858714","-2.4200000762939453 , -1.1419999599456787 , 0.02800000086426735",0).
has_screw("-2.4200000762939453 , -1.1419999599456787 , 0.02800000086426735","N910105006004").
has_nut("-2.4200000762939453 , -1.1419999599456787 , 0.02800000086426735","N910112006001").



%VERKLEIDUNG BLINKER INKL DICHTUNG
screw_connection("A4108804072_A4108800147").
has_connected_component("A4108804072_A4108800147","A4108804072",0).
has_screw_hole("A4108804072","-2.569999933242798 , 0.8289999961853027 , 0.5139999985694885").
has_screw_hole("A4108804072","-2.496999979019165 , 1.0789999961853027 , 0.5559999942779541").
has_connected_component("A4108804072_A4108800147","A4108850098",1).
%no screw connections on Dichtung
has_connected_component("A4108804072_A4108800147","A4108800247",2).
has_screw_hole("A4108800247","-2.569999933242798 , 0.8289999961853027 , 0.5139999985694885").
has_screw_hole("A4108800247","-2.496999979019165 , 1.0789999961853027 , 0.5559999942779541").

has_connection_point("A4108804072_A4108800147","-2.569999933242798 , 0.8289999961853027 , 0.5139999985694885",0).
has_screw("-2.569999933242798 , 0.8289999961853027 , 0.5139999985694885","N910105006002").

has_connection_point("A4108804072_A4108800147","-2.496999979019165 , 1.0789999961853027 , 0.5559999942779541",1).
has_screw("-2.496999979019165 , 1.0789999961853027 , 0.5559999942779541","N910105006002").


%VERSCHRAUBEN BLINKER AN VERKLEIDUNG
screw_connection("A4108800147_A0028202621").
has_connected_component("A4108800147_A0028202621","A4108800147",0).
has_screw_hole("A4108800147","-2.5840001106262207 , -0.8650000095367432 , 0.5239999890327454").
has_screw_hole("A4108800147","-2.4809999465942383 , -1.1119999885559082 , 0.6039999723434448").

has_connected_component("A4108800147_A0028202621","A0028202621",1). %has integrated screws, no seperate has_screw rule necessary

has_connection_point("A4108800147_A0028202621","-2.5840001106262207 , -0.8650000095367432 , 0.5239999890327454",0).
has_nut("-2.5840001106262207 , -0.8650000095367432 , 0.5239999890327454","N910112005000").
	
has_connection_point("A4108800147_A0028202621","-2.4809999465942383 , -1.1119999885559082 , 0.6039999723434448",1).
has_nut("-2.4809999465942383 , -1.1119999885559082 , 0.6039999723434448","N910112005000").
	


%VERSCHRAUBEN SCHEINWERFER AN STOSSFÄNGER
screw_connection("A4108804072_A0005405654").
has_connected_component("A4108804072_A0005405654","A4108804072",0).
has_screw_hole("A4108804072","-2.3519999980926514 , 1.190999984741211 , 0.48100000619888306").
has_screw_hole("A4108804072","-2.3970000743865967 , 1.1679999828338623 , 0.36899998784065247").
has_screw_hole("A4108804072","-2.4830000400543213 , 1.0579999685287476 , 0.48100000619888306").
has_screw_hole("A4108804072","-2.562000036239624 , 0.7519999742507935 , 0.2720000147819519").

has_connected_component("A4108804072_A0005405654","A0005405654",1). %has integrated screws, no seperate has_screw rule necessary

has_connection_point("A4108804072_A0005405654","-2.3519999980926514 , 1.190999984741211 , 0.48100000619888306",0).
has_nut("-2.3519999980926514 , 1.190999984741211 , 0.48100000619888306","N910112006001").
	
has_connection_point("A4108804072_A0005405654","-2.3970000743865967 , 1.1679999828338623 , 0.36899998784065247",1).
has_nut("-2.3970000743865967 , 1.1679999828338623 , 0.36899998784065247","N910112006001").
	
has_connection_point("A4108804072_A0005405654","-2.4830000400543213 , 1.0579999685287476 , 0.48100000619888306",2).
has_nut("-2.4830000400543213 , 1.0579999685287476 , 0.48100000619888306","N910112006001").
	
has_connection_point("A4108804072_A0005405654","-2.562000036239624 , 0.7519999742507935 , 0.2720000147819519",3).
has_nut("-2.562000036239624 , 0.7519999742507935 , 0.2720000147819519","N910112006001").


%An-Eindrücken an Stoßecke
push_connection("A4108804072_A0099873251").
has_connected_component("A4108804072_A0099873251","A4108804072",0).
has_connected_component("A4108804072_A0099873251","A0099873251",1).

push_connection("A4108804072_A0099878551").
has_connected_component("A4108804072_A0099878551","A4108804072",0).
has_connected_component("A4108804072_A0099878551","A0099878551",1).



%Verkleben an Stoßecke (PROFILGUMMI SELBSTKLEBEND)
glue_connection("A4108804072_A0019877046").
has_connection_point("A4108804072_A0019877046","0.1809999942779541 , 0 , -0.15299999713897705").
has_connected_component("A4108804072_A0019877046","A4108804072",0).
has_connected_component("A4108804072_A0019877046","A0019877046",1).

glue_type("A4108804072_A0019877046","self adhesive").


%Regeln zum Durchfädeln des Kabels
cable("BLINKER_KABEL").

thread_connection("BLINKER_KABEL_A4108804072_A4108800147_A4108850098").
has_threaded_component("BLINKER_KABEL_A4108804072_A4108800147_A4108850098","BLINKER_KABEL").

has_threading_component("BLINKER_KABEL_A4108804072_A4108800147_A4108850098","POS","A4108800147",0).
has_threading_component("BLINKER_KABEL_A4108804072_A4108800147_A4108850098","POS","A4108850098",1). 
has_threading_component("BLINKER_KABEL_A4108804072_A4108800147_A4108850098","POS","A4108804072",2).











